nI = 4;
nK = 3;
nS = 3;

prob = [0.25, 0.50, 0.25];

stock = [30, 22, 18];

capacite = [20, 15, 18, 17];

cout_rupture = [45.0, 40.0, 50.0];

cout_transport = array2d(1..4, 1..4, [
  0.0, 17.39252713, 47.31278897, 40.4060439,
  17.39252713, 0.0, 31.11269837, 33.45519392,
  47.31278897, 31.11269837, 0.0, 29.61840644,
  40.4060439, 33.45519392, 29.61840644, 0.0
]);

demande = array3d(1..4, 1..3, 1..3, [
  % A, Nacelle, s=faible,moyen,eleve
  9, 12, 14,
  % A, Chariot
  6, 8, 10,
  % A, Excavatrice
  5, 6, 7,

  % B, Nacelle
  8, 10, 12,
  % B, Chariot
  6, 8, 10,
  % B, Excavatrice
  5, 6, 7,

  % C, Nacelle
  4, 6, 8,
  % C, Chariot
  3, 5, 6,
  % C, Excavatrice
  3, 5, 6,

  % D, Nacelle
  5, 7, 9,
  % D, Chariot
  3, 5, 6,
  % D, Excavatrice
  2, 3, 4
]);

xFix = array2d(1..4, 1..3, [
  -1, -1, -1,
  -1, -1, -1,
  -1, -1, -1,
  -1, -1, -1
]);